(set-logic ALL)
(declare-const BAV1 Bool)
(declare-const BAV2 Bool)
(declare-const BAV3 Bool)
(declare-const GEN3 Real)
(declare-const GEN2 Real)
(declare-const GEN1 Real)
(declare-fun x () Real)
(assert (= (sin x) GEN1))
(assert (= (cos x) GEN2))
(assert (= (tan x) GEN3))
(assert (= BAV1 (= (sin x) GEN1)))
(assert (= BAV2 (= (cos x) GEN2)))
(assert (= BAV3 (= (tan x) GEN3)))
(check-sat)
(get-model)